3 3 1.6
3 1 1 17 2 1 40 2 130 2 2 50 3 60
3 1 1 30 2 1 150 2 160 1 3 70
3 2 1 50 2 60 2 2 170 3 180 2 2 90 3 100

   0  15  62  
11  0  2  
56  62  0  
0  43  66  
62  0  25  
35  80  0  
0  56  60  
27  0  47  
52  81  0  
